N = 240;
M = 596;
Edge_Start = [1, 1, 2, 3, 3, 5, 5, 6, 7, 7, 9, 10, 11, 11, 12, 13, 13, 14, 15, 16, 17, 17, 18, 19, 19, 20, 21, 22, 23, 23, 25, 25, 26, 27, 27, 28, 29, 29, 30, 31, 31, 32, 33, 33, 34, 35, 35, 36, 37, 37, 38, 39, 41, 41, 43, 44, 44, 45, 46, 46, 47, 48, 48, 49, 50, 51, 52, 52, 54, 54, 55, 56, 56, 57, 58, 60, 60, 61, 62, 63, 64, 64, 66, 67, 67, 68, 69, 69, 70, 71, 71, 73, 73, 74, 75, 75, 76, 77, 77, 78, 79, 80, 81, 82, 83, 83, 84, 85, 85, 86, 87, 88, 88, 89, 90, 91, 92, 92, 93, 94, 94, 95, 96, 97, 98, 98, 99, 100, 100, 102, 102, 103, 104, 104, 105, 106, 106, 107, 108, 108, 110, 111, 111, 113, 113, 114, 115, 115, 116, 117, 117, 118, 119, 119, 120, 121, 121, 122, 123, 123, 125, 125, 126, 127, 127, 128, 129, 130, 132, 133, 134, 134, 135, 136, 136, 137, 138, 138, 139, 140, 141, 142, 142, 143, 144, 144, 145, 146, 146, 147, 148, 148, 150, 151, 152, 152, 154, 155, 155, 156, 157, 157, 158, 159, 159, 160, 161, 161, 162, 163, 163, 164, 165, 165, 166, 167, 168, 169, 169, 170, 171, 171, 172, 173, 173, 174, 175, 176, 176, 177, 178, 178, 179, 180, 180, 181, 182, 182, 184, 184, 185, 186, 186, 187, 188, 188, 189, 190, 192, 193, 194, 194, 195, 196, 196, 198, 199, 199, 200, 201, 201, 202, 203, 203, 204, 205, 205, 207, 207, 208, 209, 209, 210, 211, 211, 213, 214, 215, 216, 217, 218, 219, 221, 222, 224, 225, 226, 228, 229, 230, 231, 232, 233, 234, 235, 236, 237, 239, 2, 22, 3, 4, 24, 6, 26, 7, 8, 28, 30, 11, 12, 32, 13, 14, 34, 15, 36, 17, 18, 38, 19, 20, 40, 21, 42, 23, 24, 45, 26, 47, 27, 28, 49, 29, 30, 51, 31, 32, 53, 33, 34, 55, 35, 36, 57, 37, 38, 59, 39, 61, 42, 63, 65, 45, 66, 46, 47, 68, 48, 49, 70, 50, 51, 52, 53, 74, 55, 76, 56, 57, 78, 58, 80, 61, 82, 62, 84, 64, 65, 86, 67, 68, 89, 69, 70, 91, 71, 72, 93, 74, 95, 75, 76, 97, 77, 78, 99, 79, 80, 81, 103, 83, 84, 105, 85, 86, 107, 87, 109, 89, 110, 90, 91, 92, 93, 114, 94, 95, 116, 96, 118, 98, 99, 120, 100, 101, 122, 103, 124, 104, 105, 126, 106, 107, 128, 108, 109, 130, 111, 112, 133, 114, 135, 115, 116, 137, 117, 118, 139, 119, 120, 141, 121, 122, 143, 123, 124, 145, 126, 147, 127, 128, 149, 129, 130, 131, 133, 134, 135, 156, 136, 137, 158, 138, 139, 160, 140, 162, 142, 143, 164, 144, 145, 166, 146, 147, 168, 148, 149, 170, 151, 152, 153, 174, 155, 156, 177, 157, 158, 179, 159, 160, 181, 161, 162, 183, 163, 164, 185, 165, 166, 187, 167, 168, 169, 170, 191, 171, 172, 193, 173, 174, 195, 175, 197, 177, 198, 178, 179, 200, 180, 181, 202, 182, 183, 204, 185, 206, 186, 187, 208, 188, 189, 210, 190, 212, 214, 194, 195, 216, 196, 197, 218, 199, 200, 220, 201, 202, 222, 203, 204, 224, 205, 206, 226, 208, 228, 209, 210, 230, 211, 212, 232, 234, 215, 236, 217, 238, 219, 240, 222, 223, 225, 226, 227, 229, 230, 231, 232, 233, 234, 235, 236, 237, 238, 240];
Edge_End = [2, 22, 3, 4, 24, 6, 26, 7, 8, 28, 30, 11, 12, 32, 13, 14, 34, 15, 36, 17, 18, 38, 19, 20, 40, 21, 42, 23, 24, 45, 26, 47, 27, 28, 49, 29, 30, 51, 31, 32, 53, 33, 34, 55, 35, 36, 57, 37, 38, 59, 39, 61, 42, 63, 65, 45, 66, 46, 47, 68, 48, 49, 70, 50, 51, 52, 53, 74, 55, 76, 56, 57, 78, 58, 80, 61, 82, 62, 84, 64, 65, 86, 67, 68, 89, 69, 70, 91, 71, 72, 93, 74, 95, 75, 76, 97, 77, 78, 99, 79, 80, 81, 103, 83, 84, 105, 85, 86, 107, 87, 109, 89, 110, 90, 91, 92, 93, 114, 94, 95, 116, 96, 118, 98, 99, 120, 100, 101, 122, 103, 124, 104, 105, 126, 106, 107, 128, 108, 109, 130, 111, 112, 133, 114, 135, 115, 116, 137, 117, 118, 139, 119, 120, 141, 121, 122, 143, 123, 124, 145, 126, 147, 127, 128, 149, 129, 130, 131, 133, 134, 135, 156, 136, 137, 158, 138, 139, 160, 140, 162, 142, 143, 164, 144, 145, 166, 146, 147, 168, 148, 149, 170, 151, 152, 153, 174, 155, 156, 177, 157, 158, 179, 159, 160, 181, 161, 162, 183, 163, 164, 185, 165, 166, 187, 167, 168, 169, 170, 191, 171, 172, 193, 173, 174, 195, 175, 197, 177, 198, 178, 179, 200, 180, 181, 202, 182, 183, 204, 185, 206, 186, 187, 208, 188, 189, 210, 190, 212, 214, 194, 195, 216, 196, 197, 218, 199, 200, 220, 201, 202, 222, 203, 204, 224, 205, 206, 226, 208, 228, 209, 210, 230, 211, 212, 232, 234, 215, 236, 217, 238, 219, 240, 222, 223, 225, 226, 227, 229, 230, 231, 232, 233, 234, 235, 236, 237, 238, 240, 1, 1, 2, 3, 3, 5, 5, 6, 7, 7, 9, 10, 11, 11, 12, 13, 13, 14, 15, 16, 17, 17, 18, 19, 19, 20, 21, 22, 23, 23, 25, 25, 26, 27, 27, 28, 29, 29, 30, 31, 31, 32, 33, 33, 34, 35, 35, 36, 37, 37, 38, 39, 41, 41, 43, 44, 44, 45, 46, 46, 47, 48, 48, 49, 50, 51, 52, 52, 54, 54, 55, 56, 56, 57, 58, 60, 60, 61, 62, 63, 64, 64, 66, 67, 67, 68, 69, 69, 70, 71, 71, 73, 73, 74, 75, 75, 76, 77, 77, 78, 79, 80, 81, 82, 83, 83, 84, 85, 85, 86, 87, 88, 88, 89, 90, 91, 92, 92, 93, 94, 94, 95, 96, 97, 98, 98, 99, 100, 100, 102, 102, 103, 104, 104, 105, 106, 106, 107, 108, 108, 110, 111, 111, 113, 113, 114, 115, 115, 116, 117, 117, 118, 119, 119, 120, 121, 121, 122, 123, 123, 125, 125, 126, 127, 127, 128, 129, 130, 132, 133, 134, 134, 135, 136, 136, 137, 138, 138, 139, 140, 141, 142, 142, 143, 144, 144, 145, 146, 146, 147, 148, 148, 150, 151, 152, 152, 154, 155, 155, 156, 157, 157, 158, 159, 159, 160, 161, 161, 162, 163, 163, 164, 165, 165, 166, 167, 168, 169, 169, 170, 171, 171, 172, 173, 173, 174, 175, 176, 176, 177, 178, 178, 179, 180, 180, 181, 182, 182, 184, 184, 185, 186, 186, 187, 188, 188, 189, 190, 192, 193, 194, 194, 195, 196, 196, 198, 199, 199, 200, 201, 201, 202, 203, 203, 204, 205, 205, 207, 207, 208, 209, 209, 210, 211, 211, 213, 214, 215, 216, 217, 218, 219, 221, 222, 224, 225, 226, 228, 229, 230, 231, 232, 233, 234, 235, 236, 237, 239];
L = [12, 5, 14, 10, 12, 9, 13, 16, 10, 19, 8, 1, 16, 15, 3, 3, 11, 17, 15, 3, 7, 16, 3, 1, 12, 1, 10, 1, 4, 4, 14, 7, 18, 5, 1, 9, 14, 5, 14, 15, 11, 8, 6, 3, 16, 14, 17, 15, 18, 3, 5, 3, 15, 1, 12, 1, 4, 18, 17, 2, 10, 11, 12, 7, 6, 1, 18, 6, 15, 11, 6, 17, 3, 10, 11, 17, 12, 5, 7, 12, 6, 7, 9, 8, 19, 2, 17, 3, 9, 13, 6, 7, 8, 2, 1, 3, 10, 18, 18, 16, 2, 3, 17, 16, 1, 18, 4, 17, 6, 18, 1, 4, 9, 16, 13, 3, 5, 5, 10, 5, 9, 3, 15, 7, 12, 13, 18, 4, 7, 1, 14, 12, 11, 3, 9, 9, 4, 6, 8, 2, 1, 1, 11, 12, 12, 8, 12, 17, 14, 14, 1, 6, 9, 15, 3, 2, 10, 5, 18, 15, 14, 6, 11, 15, 6, 1, 9, 4, 8, 16, 14, 3, 7, 17, 8, 13, 18, 10, 10, 12, 14, 12, 6, 10, 10, 19, 5, 7, 2, 10, 1, 18, 13, 9, 6, 19, 10, 9, 12, 2, 1, 4, 14, 4, 15, 6, 11, 16, 7, 1, 11, 3, 17, 14, 1, 17, 6, 17, 19, 10, 16, 12, 2, 13, 2, 14, 2, 4, 15, 12, 9, 18, 1, 6, 1, 13, 8, 6, 13, 5, 3, 17, 5, 11, 11, 18, 1, 16, 13, 16, 6, 8, 18, 12, 15, 1, 13, 1, 5, 1, 5, 9, 8, 15, 12, 8, 7, 7, 9, 2, 17, 4, 16, 18, 4, 5, 5, 6, 5, 11, 12, 12, 15, 10, 14, 13, 1, 1, 8, 5, 13, 18, 17, 12, 13, 12, 12, 9, 12, 5, 14, 10, 12, 9, 13, 16, 10, 19, 8, 1, 16, 15, 3, 3, 11, 17, 15, 3, 7, 16, 3, 1, 12, 1, 10, 1, 4, 4, 14, 7, 18, 5, 1, 9, 14, 5, 14, 15, 11, 8, 6, 3, 16, 14, 17, 15, 18, 3, 5, 3, 15, 1, 12, 1, 4, 18, 17, 2, 10, 11, 12, 7, 6, 1, 18, 6, 15, 11, 6, 17, 3, 10, 11, 17, 12, 5, 7, 12, 6, 7, 9, 8, 19, 2, 17, 3, 9, 13, 6, 7, 8, 2, 1, 3, 10, 18, 18, 16, 2, 3, 17, 16, 1, 18, 4, 17, 6, 18, 1, 4, 9, 16, 13, 3, 5, 5, 10, 5, 9, 3, 15, 7, 12, 13, 18, 4, 7, 1, 14, 12, 11, 3, 9, 9, 4, 6, 8, 2, 1, 1, 11, 12, 12, 8, 12, 17, 14, 14, 1, 6, 9, 15, 3, 2, 10, 5, 18, 15, 14, 6, 11, 15, 6, 1, 9, 4, 8, 16, 14, 3, 7, 17, 8, 13, 18, 10, 10, 12, 14, 12, 6, 10, 10, 19, 5, 7, 2, 10, 1, 18, 13, 9, 6, 19, 10, 9, 12, 2, 1, 4, 14, 4, 15, 6, 11, 16, 7, 1, 11, 3, 17, 14, 1, 17, 6, 17, 19, 10, 16, 12, 2, 13, 2, 14, 2, 4, 15, 12, 9, 18, 1, 6, 1, 13, 8, 6, 13, 5, 3, 17, 5, 11, 11, 18, 1, 16, 13, 16, 6, 8, 18, 12, 15, 1, 13, 1, 5, 1, 5, 9, 8, 15, 12, 8, 7, 7, 9, 2, 17, 4, 16, 18, 4, 5, 5, 6, 5, 11, 12, 12, 15, 10, 14, 13, 1, 1, 8, 5, 13, 18, 17, 12, 13, 12, 12, 9];
T = [16, 7, 14, 7, 14, 10, 25, 17, 4, 18, 2, 1, 13, 22, 1, 1, 2, 14, 20, 5, 5, 17, 6, 1, 25, 4, 16, 4, 2, 3, 10, 2, 26, 8, 4, 8, 10, 1, 17, 13, 10, 3, 8, 7, 9, 11, 12, 16, 19, 4, 6, 6, 14, 1, 4, 1, 2, 17, 10, 1, 6, 26, 7, 9, 6, 4, 8, 8, 21, 13, 5, 15, 5, 3, 14, 20, 3, 8, 1, 13, 6, 4, 9, 18, 22, 5, 17, 3, 11, 5, 8, 3, 3, 6, 9, 1, 7, 12, 16, 15, 5, 10, 17, 20, 2, 19, 3, 16, 11, 22, 1, 12, 3, 5, 15, 2, 1, 3, 4, 5, 8, 1, 18, 10, 7, 12, 27, 7, 10, 8, 13, 9, 13, 1, 1, 5, 1, 16, 3, 8, 1, 7, 8, 16, 17, 16, 8, 19, 5, 17, 1, 6, 1, 2, 1, 3, 7, 3, 17, 18, 11, 10, 6, 15, 7, 10, 7, 3, 3, 18, 16, 4, 6, 22, 8, 15, 18, 8, 9, 9, 11, 2, 8, 14, 10, 19, 4, 1, 8, 9, 3, 14, 14, 16, 8, 20, 9, 2, 9, 4, 1, 8, 15, 1, 18, 3, 11, 18, 4, 1, 13, 2, 12, 5, 1, 17, 4, 16, 26, 11, 26, 14, 2, 15, 2, 6, 1, 4, 21, 14, 12, 25, 1, 9, 1, 10, 1, 2, 12, 5, 10, 22, 2, 11, 10, 18, 7, 15, 8, 14, 2, 8, 25, 10, 6, 1, 11, 1, 5, 1, 4, 6, 13, 12, 11, 2, 11, 4, 3, 4, 16, 5, 20, 25, 1, 14, 5, 1, 4, 12, 5, 8, 15, 7, 10, 22, 1, 1, 4, 11, 8, 14, 22, 6, 5, 1, 5, 9, 16, 7, 14, 7, 14, 10, 25, 17, 4, 18, 2, 1, 13, 22, 1, 1, 2, 14, 20, 5, 5, 17, 6, 1, 25, 4, 16, 4, 2, 3, 10, 2, 26, 8, 4, 8, 10, 1, 17, 13, 10, 3, 8, 7, 9, 11, 12, 16, 19, 4, 6, 6, 14, 1, 4, 1, 2, 17, 10, 1, 6, 26, 7, 9, 6, 4, 8, 8, 21, 13, 5, 15, 5, 3, 14, 20, 3, 8, 1, 13, 6, 4, 9, 18, 22, 5, 17, 3, 11, 5, 8, 3, 3, 6, 9, 1, 7, 12, 16, 15, 5, 10, 17, 20, 2, 19, 3, 16, 11, 22, 1, 12, 3, 5, 15, 2, 1, 3, 4, 5, 8, 1, 18, 10, 7, 12, 27, 7, 10, 8, 13, 9, 13, 1, 1, 5, 1, 16, 3, 8, 1, 7, 8, 16, 17, 16, 8, 19, 5, 17, 1, 6, 1, 2, 1, 3, 7, 3, 17, 18, 11, 10, 6, 15, 7, 10, 7, 3, 3, 18, 16, 4, 6, 22, 8, 15, 18, 8, 9, 9, 11, 2, 8, 14, 10, 19, 4, 1, 8, 9, 3, 14, 14, 16, 8, 20, 9, 2, 9, 4, 1, 8, 15, 1, 18, 3, 11, 18, 4, 1, 13, 2, 12, 5, 1, 17, 4, 16, 26, 11, 26, 14, 2, 15, 2, 6, 1, 4, 21, 14, 12, 25, 1, 9, 1, 10, 1, 2, 12, 5, 10, 22, 2, 11, 10, 18, 7, 15, 8, 14, 2, 8, 25, 10, 6, 1, 11, 1, 5, 1, 4, 6, 13, 12, 11, 2, 11, 4, 3, 4, 16, 5, 20, 25, 1, 14, 5, 1, 4, 12, 5, 8, 15, 7, 10, 22, 1, 1, 4, 11, 8, 14, 22, 6, 5, 1, 5, 9];
Lower_Bound = [1, 16, 27, 36, 79, 88, 98, 103, 84, 121, 119, 111, 112, 111, 126, 185, 180, 185, 191, 193, 196, 7, 13, 13, 43, 53, 77, 79, 72, 81, 84, 98, 100, 108, 117, 128, 146, 164, 172, 217, 196, 207, 189, 15, 15, 31, 43, 47, 73, 76, 70, 67, 74, 87, 102, 97, 112, 115, 149, 185, 171, 164, 192, 179, 185, 19, 29, 32, 37, 54, 51, 56, 56, 58, 64, 73, 80, 92, 108, 112, 123, 182, 163, 162, 159, 175, 168, 60, 48, 53, 40, 42, 43, 47, 52, 53, 65, 76, 82, 92, 100, 115, 123, 130, 143, 143, 148, 165, 167, 64, 64, 71, 61, 45, 62, 55, 61, 71, 77, 78, 81, 85, 85, 103, 120, 129, 127, 142, 152, 159, 162, 75, 74, 90, 78, 84, 81, 79, 61, 70, 79, 88, 86, 100, 105, 107, 108, 117, 121, 235, 221, 206, 213, 105, 96, 94, 95, 92, 88, 88, 90, 79, 83, 84, 86, 99, 99, 115, 119, 131, 143, 168, 171, 188, 194, 109, 105, 113, 102, 104, 106, 109, 108, 108, 96, 106, 91, 103, 112, 119, 145, 197, 156, 170, 172, 198, 192, 121, 120, 110, 104, 103, 109, 111, 117, 113, 113, 108, 112, 120, 137, 135, 186, 189, 184, 178, 182, 204, 210, 122, 123, 108, 115, 123, 131, 126, 127, 115, 118, 117, 128, 136, 150, 172, 178, 184, 184, 191, 227, 216];
Upper_Bound = [6, 24, 32, 37, 80, 91, 103, 105, 86, 126, 124, 115, 113, 114, 153, 192, 183, 189, 193, 194, 214, 8, 22, 19, 44, 55, 82, 90, 73, 83, 86, 103, 104, 111, 122, 130, 155, 169, 183, 218, 198, 212, 190, 22, 23, 32, 51, 48, 74, 78, 85, 69, 84, 88, 103, 100, 113, 119, 154, 189, 176, 166, 210, 187, 188, 20, 44, 37, 52, 56, 59, 64, 58, 65, 65, 88, 91, 98, 109, 122, 128, 195, 167, 165, 162, 177, 171, 68, 51, 61, 41, 56, 49, 54, 58, 71, 72, 85, 84, 93, 102, 127, 127, 132, 144, 146, 153, 174, 169, 65, 72, 74, 67, 49, 63, 71, 69, 76, 79, 86, 87, 86, 90, 106, 131, 131, 128, 158, 153, 160, 163, 76, 82, 95, 80, 85, 83, 81, 67, 71, 83, 90, 94, 102, 109, 111, 119, 118, 123, 237, 222, 207, 217, 110, 100, 95, 100, 101, 94, 94, 100, 80, 90, 101, 87, 101, 105, 118, 123, 132, 145, 172, 183, 195, 195, 112, 110, 115, 106, 110, 111, 117, 110, 109, 98, 107, 95, 111, 118, 121, 157, 203, 167, 176, 179, 205, 193, 122, 121, 122, 105, 108, 111, 113, 122, 114, 123, 110, 121, 121, 139, 137, 195, 194, 189, 181, 185, 214, 215, 126, 127, 109, 122, 136, 132, 137, 135, 119, 120, 118, 131, 143, 151, 176, 180, 185, 190, 197, 232, 222];
Start = 1;
End = 240;
Time = 222;
